WARNING: for repeatability, setting FPU to use double precision
============================[ Problem Statistics ]=============================
|                                                                             |
|  Number of variables:          8399                                         |
|  Number of clauses:          110792                                         |
|  Parse time:                   0.03 s                                       |
|  Eliminated clauses:           0.02 Mb                                      |
|  Simplification time:          0.03 s                                       |
|                                                                             |
============================[ Search Statistics ]==============================
| Conflicts |          ORIGINAL         |          LEARNT          | Progress |
|           |    Vars  Clauses Literals |    Limit  Clauses Lit/Cl |          |
===============================================================================
===============================================================================
restarts              : 1
conflicts             : 9              (150 /sec)
decisions             : 415            (0.00 % random) (6937 /sec)
propagations          : 6486           (108425 /sec)
conflict literals     : 14             (0.00 % deleted)
Memory used           : 28.00 MB
CPU time              : 0.05982 s

UNSATISFIABLE
